15
45
959
1024
880
805
903
887
871
976
813
973
777
795
769
977
783
972	1026
419	386
861	945
686	764
350	319
919	1002
888	878
634	679
245	270
864	826
185	272
671	671
61	10
943	857
528	606
765	699
188	123
997	1039
777	705
351	256
182	138
480	500
679	601
637	705
841	803
767	817
89	127
770	824
791	803
794	792
994	943
81	40
297	284
613	695
597	521
848	909
481	534
535	516
734	751
638	600
392	369
663	725
494	405
419	471
265	364
